(set-logic QF_LRA)
(declare-fun X0 () Real )
(declare-fun Y0 () Real )
(declare-fun X1 () Real )
(declare-fun Y1 () Real )
(declare-fun X2 () Real )
(declare-fun Y2 () Real )
(declare-fun X3 () Real )
(declare-fun Y3 () Real )
(declare-fun X4 () Real )
(declare-fun Y4 () Real )
(declare-fun X5 () Real )
(declare-fun Y5 () Real )
(declare-fun X6 () Real )
(declare-fun Y6 () Real )
(declare-fun X7 () Real )
(declare-fun Y7 () Real )
(declare-fun X8 () Real )
(declare-fun Y8 () Real )
(declare-fun X9 () Real )
(declare-fun Y9 () Real )
(declare-fun X10 () Real )
(declare-fun Y10 () Real )
(declare-fun X11 () Real )
(declare-fun Y11 () Real )
(declare-fun Z () Real )
(declare-fun k () Real )
(assert (let
(( $goal (>= Z k) ))
(let
((
$phi ( and 
( or ( <= ( + X0 65 ) X1 )  ( <= ( + X1 4 ) X0 )  ( <= ( + Y0 29 ) Y1 )  ( <= ( + Y1 5 ) Y0 )  )
( or ( <= ( + X0 65 ) X2 )  ( <= ( + X2 16 ) X0 )  ( <= ( + Y0 29 ) Y2 )  ( <= ( + Y2 83 ) Y0 )  )
( or ( <= ( + X0 65 ) X3 )  ( <= ( + X3 99 ) X0 )  ( <= ( + Y0 29 ) Y3 )  ( <= ( + Y3 3 ) Y0 )  )
( or ( <= ( + X0 65 ) X4 )  ( <= ( + X4 91 ) X0 )  ( <= ( + Y0 29 ) Y4 )  ( <= ( + Y4 65 ) Y0 )  )
( or ( <= ( + X0 65 ) X5 )  ( <= ( + X5 64 ) X0 )  ( <= ( + Y0 29 ) Y5 )  ( <= ( + Y5 78 ) Y0 )  )
( or ( <= ( + X0 65 ) X6 )  ( <= ( + X6 21 ) X0 )  ( <= ( + Y0 29 ) Y6 )  ( <= ( + Y6 48 ) Y0 )  )
( or ( <= ( + X0 65 ) X7 )  ( <= ( + X7 63 ) X0 )  ( <= ( + Y0 29 ) Y7 )  ( <= ( + Y7 87 ) Y0 )  )
( or ( <= ( + X0 65 ) X8 )  ( <= ( + X8 72 ) X0 )  ( <= ( + Y0 29 ) Y8 )  ( <= ( + Y8 78 ) Y0 )  )
( or ( <= ( + X0 65 ) X9 )  ( <= ( + X9 14 ) X0 )  ( <= ( + Y0 29 ) Y9 )  ( <= ( + Y9 80 ) Y0 )  )
( or ( <= ( + X0 65 ) X10 )  ( <= ( + X10 58 ) X0 )  ( <= ( + Y0 29 ) Y10 )  ( <= ( + Y10 49 ) Y0 )  )
( or ( <= ( + X0 65 ) X11 )  ( <= ( + X11 61 ) X0 )  ( <= ( + Y0 29 ) Y11 )  ( <= ( + Y11 65 ) Y0 )  )
( or ( <= ( + X1 4 ) X2 )  ( <= ( + X2 16 ) X1 )  ( <= ( + Y1 5 ) Y2 )  ( <= ( + Y2 83 ) Y1 )  )
( or ( <= ( + X1 4 ) X3 )  ( <= ( + X3 99 ) X1 )  ( <= ( + Y1 5 ) Y3 )  ( <= ( + Y3 3 ) Y1 )  )
( or ( <= ( + X1 4 ) X4 )  ( <= ( + X4 91 ) X1 )  ( <= ( + Y1 5 ) Y4 )  ( <= ( + Y4 65 ) Y1 )  )
( or ( <= ( + X1 4 ) X5 )  ( <= ( + X5 64 ) X1 )  ( <= ( + Y1 5 ) Y5 )  ( <= ( + Y5 78 ) Y1 )  )
( or ( <= ( + X1 4 ) X6 )  ( <= ( + X6 21 ) X1 )  ( <= ( + Y1 5 ) Y6 )  ( <= ( + Y6 48 ) Y1 )  )
( or ( <= ( + X1 4 ) X7 )  ( <= ( + X7 63 ) X1 )  ( <= ( + Y1 5 ) Y7 )  ( <= ( + Y7 87 ) Y1 )  )
( or ( <= ( + X1 4 ) X8 )  ( <= ( + X8 72 ) X1 )  ( <= ( + Y1 5 ) Y8 )  ( <= ( + Y8 78 ) Y1 )  )
( or ( <= ( + X1 4 ) X9 )  ( <= ( + X9 14 ) X1 )  ( <= ( + Y1 5 ) Y9 )  ( <= ( + Y9 80 ) Y1 )  )
( or ( <= ( + X1 4 ) X10 )  ( <= ( + X10 58 ) X1 )  ( <= ( + Y1 5 ) Y10 )  ( <= ( + Y10 49 ) Y1 )  )
( or ( <= ( + X1 4 ) X11 )  ( <= ( + X11 61 ) X1 )  ( <= ( + Y1 5 ) Y11 )  ( <= ( + Y11 65 ) Y1 )  )
( or ( <= ( + X2 16 ) X3 )  ( <= ( + X3 99 ) X2 )  ( <= ( + Y2 83 ) Y3 )  ( <= ( + Y3 3 ) Y2 )  )
( or ( <= ( + X2 16 ) X4 )  ( <= ( + X4 91 ) X2 )  ( <= ( + Y2 83 ) Y4 )  ( <= ( + Y4 65 ) Y2 )  )
( or ( <= ( + X2 16 ) X5 )  ( <= ( + X5 64 ) X2 )  ( <= ( + Y2 83 ) Y5 )  ( <= ( + Y5 78 ) Y2 )  )
( or ( <= ( + X2 16 ) X6 )  ( <= ( + X6 21 ) X2 )  ( <= ( + Y2 83 ) Y6 )  ( <= ( + Y6 48 ) Y2 )  )
( or ( <= ( + X2 16 ) X7 )  ( <= ( + X7 63 ) X2 )  ( <= ( + Y2 83 ) Y7 )  ( <= ( + Y7 87 ) Y2 )  )
( or ( <= ( + X2 16 ) X8 )  ( <= ( + X8 72 ) X2 )  ( <= ( + Y2 83 ) Y8 )  ( <= ( + Y8 78 ) Y2 )  )
( or ( <= ( + X2 16 ) X9 )  ( <= ( + X9 14 ) X2 )  ( <= ( + Y2 83 ) Y9 )  ( <= ( + Y9 80 ) Y2 )  )
( or ( <= ( + X2 16 ) X10 )  ( <= ( + X10 58 ) X2 )  ( <= ( + Y2 83 ) Y10 )  ( <= ( + Y10 49 ) Y2 )  )
( or ( <= ( + X2 16 ) X11 )  ( <= ( + X11 61 ) X2 )  ( <= ( + Y2 83 ) Y11 )  ( <= ( + Y11 65 ) Y2 )  )
( or ( <= ( + X3 99 ) X4 )  ( <= ( + X4 91 ) X3 )  ( <= ( + Y3 3 ) Y4 )  ( <= ( + Y4 65 ) Y3 )  )
( or ( <= ( + X3 99 ) X5 )  ( <= ( + X5 64 ) X3 )  ( <= ( + Y3 3 ) Y5 )  ( <= ( + Y5 78 ) Y3 )  )
( or ( <= ( + X3 99 ) X6 )  ( <= ( + X6 21 ) X3 )  ( <= ( + Y3 3 ) Y6 )  ( <= ( + Y6 48 ) Y3 )  )
( or ( <= ( + X3 99 ) X7 )  ( <= ( + X7 63 ) X3 )  ( <= ( + Y3 3 ) Y7 )  ( <= ( + Y7 87 ) Y3 )  )
( or ( <= ( + X3 99 ) X8 )  ( <= ( + X8 72 ) X3 )  ( <= ( + Y3 3 ) Y8 )  ( <= ( + Y8 78 ) Y3 )  )
( or ( <= ( + X3 99 ) X9 )  ( <= ( + X9 14 ) X3 )  ( <= ( + Y3 3 ) Y9 )  ( <= ( + Y9 80 ) Y3 )  )
( or ( <= ( + X3 99 ) X10 )  ( <= ( + X10 58 ) X3 )  ( <= ( + Y3 3 ) Y10 )  ( <= ( + Y10 49 ) Y3 )  )
( or ( <= ( + X3 99 ) X11 )  ( <= ( + X11 61 ) X3 )  ( <= ( + Y3 3 ) Y11 )  ( <= ( + Y11 65 ) Y3 )  )
( or ( <= ( + X4 91 ) X5 )  ( <= ( + X5 64 ) X4 )  ( <= ( + Y4 65 ) Y5 )  ( <= ( + Y5 78 ) Y4 )  )
( or ( <= ( + X4 91 ) X6 )  ( <= ( + X6 21 ) X4 )  ( <= ( + Y4 65 ) Y6 )  ( <= ( + Y6 48 ) Y4 )  )
( or ( <= ( + X4 91 ) X7 )  ( <= ( + X7 63 ) X4 )  ( <= ( + Y4 65 ) Y7 )  ( <= ( + Y7 87 ) Y4 )  )
( or ( <= ( + X4 91 ) X8 )  ( <= ( + X8 72 ) X4 )  ( <= ( + Y4 65 ) Y8 )  ( <= ( + Y8 78 ) Y4 )  )
( or ( <= ( + X4 91 ) X9 )  ( <= ( + X9 14 ) X4 )  ( <= ( + Y4 65 ) Y9 )  ( <= ( + Y9 80 ) Y4 )  )
( or ( <= ( + X4 91 ) X10 )  ( <= ( + X10 58 ) X4 )  ( <= ( + Y4 65 ) Y10 )  ( <= ( + Y10 49 ) Y4 )  )
( or ( <= ( + X4 91 ) X11 )  ( <= ( + X11 61 ) X4 )  ( <= ( + Y4 65 ) Y11 )  ( <= ( + Y11 65 ) Y4 )  )
( or ( <= ( + X5 64 ) X6 )  ( <= ( + X6 21 ) X5 )  ( <= ( + Y5 78 ) Y6 )  ( <= ( + Y6 48 ) Y5 )  )
( or ( <= ( + X5 64 ) X7 )  ( <= ( + X7 63 ) X5 )  ( <= ( + Y5 78 ) Y7 )  ( <= ( + Y7 87 ) Y5 )  )
( or ( <= ( + X5 64 ) X8 )  ( <= ( + X8 72 ) X5 )  ( <= ( + Y5 78 ) Y8 )  ( <= ( + Y8 78 ) Y5 )  )
( or ( <= ( + X5 64 ) X9 )  ( <= ( + X9 14 ) X5 )  ( <= ( + Y5 78 ) Y9 )  ( <= ( + Y9 80 ) Y5 )  )
( or ( <= ( + X5 64 ) X10 )  ( <= ( + X10 58 ) X5 )  ( <= ( + Y5 78 ) Y10 )  ( <= ( + Y10 49 ) Y5 )  )
( or ( <= ( + X5 64 ) X11 )  ( <= ( + X11 61 ) X5 )  ( <= ( + Y5 78 ) Y11 )  ( <= ( + Y11 65 ) Y5 )  )
( or ( <= ( + X6 21 ) X7 )  ( <= ( + X7 63 ) X6 )  ( <= ( + Y6 48 ) Y7 )  ( <= ( + Y7 87 ) Y6 )  )
( or ( <= ( + X6 21 ) X8 )  ( <= ( + X8 72 ) X6 )  ( <= ( + Y6 48 ) Y8 )  ( <= ( + Y8 78 ) Y6 )  )
( or ( <= ( + X6 21 ) X9 )  ( <= ( + X9 14 ) X6 )  ( <= ( + Y6 48 ) Y9 )  ( <= ( + Y9 80 ) Y6 )  )
( or ( <= ( + X6 21 ) X10 )  ( <= ( + X10 58 ) X6 )  ( <= ( + Y6 48 ) Y10 )  ( <= ( + Y10 49 ) Y6 )  )
( or ( <= ( + X6 21 ) X11 )  ( <= ( + X11 61 ) X6 )  ( <= ( + Y6 48 ) Y11 )  ( <= ( + Y11 65 ) Y6 )  )
( or ( <= ( + X7 63 ) X8 )  ( <= ( + X8 72 ) X7 )  ( <= ( + Y7 87 ) Y8 )  ( <= ( + Y8 78 ) Y7 )  )
( or ( <= ( + X7 63 ) X9 )  ( <= ( + X9 14 ) X7 )  ( <= ( + Y7 87 ) Y9 )  ( <= ( + Y9 80 ) Y7 )  )
( or ( <= ( + X7 63 ) X10 )  ( <= ( + X10 58 ) X7 )  ( <= ( + Y7 87 ) Y10 )  ( <= ( + Y10 49 ) Y7 )  )
( or ( <= ( + X7 63 ) X11 )  ( <= ( + X11 61 ) X7 )  ( <= ( + Y7 87 ) Y11 )  ( <= ( + Y11 65 ) Y7 )  )
( or ( <= ( + X8 72 ) X9 )  ( <= ( + X9 14 ) X8 )  ( <= ( + Y8 78 ) Y9 )  ( <= ( + Y9 80 ) Y8 )  )
( or ( <= ( + X8 72 ) X10 )  ( <= ( + X10 58 ) X8 )  ( <= ( + Y8 78 ) Y10 )  ( <= ( + Y10 49 ) Y8 )  )
( or ( <= ( + X8 72 ) X11 )  ( <= ( + X11 61 ) X8 )  ( <= ( + Y8 78 ) Y11 )  ( <= ( + Y11 65 ) Y8 )  )
( or ( <= ( + X9 14 ) X10 )  ( <= ( + X10 58 ) X9 )  ( <= ( + Y9 80 ) Y10 )  ( <= ( + Y10 49 ) Y9 )  )
( or ( <= ( + X9 14 ) X11 )  ( <= ( + X11 61 ) X9 )  ( <= ( + Y9 80 ) Y11 )  ( <= ( + Y11 65 ) Y9 )  )
( or ( <= ( + X10 58 ) X11 )  ( <= ( + X11 61 ) X10 )  ( <= ( + Y10 49 ) Y11 )  ( <= ( + Y11 65 ) Y10 )  )
( >= X0 0)
( <= ( + X0 65) Z)
( >= Y0 0)
( <= ( + Y0 29 ) 173)
( >= X1 0)
( <= ( + X1 4) Z)
( >= Y1 0)
( <= ( + Y1 5 ) 173)
( >= X2 0)
( <= ( + X2 16) Z)
( >= Y2 0)
( <= ( + Y2 83 ) 173)
( >= X3 0)
( <= ( + X3 99) Z)
( >= Y3 0)
( <= ( + Y3 3 ) 173)
( >= X4 0)
( <= ( + X4 91) Z)
( >= Y4 0)
( <= ( + Y4 65 ) 173)
( >= X5 0)
( <= ( + X5 64) Z)
( >= Y5 0)
( <= ( + Y5 78 ) 173)
( >= X6 0)
( <= ( + X6 21) Z)
( >= Y6 0)
( <= ( + Y6 48 ) 173)
( >= X7 0)
( <= ( + X7 63) Z)
( >= Y7 0)
( <= ( + Y7 87 ) 173)
( >= X8 0)
( <= ( + X8 72) Z)
( >= Y8 0)
( <= ( + Y8 78 ) 173)
( >= X9 0)
( <= ( + X9 14) Z)
( >= Y9 0)
( <= ( + Y9 80 ) 173)
( >= X10 0)
( <= ( + X10 58) Z)
( >= Y10 0)
( <= ( + Y10 49 ) 173)
( >= X11 0)
( <= ( + X11 61) Z)
( >= Y11 0)
( <= ( + Y11 65 ) 173)
) )
)(=> $phi $goal))))